data/solutions/recovery/degenerate/moderate/flexible/degenerate_moderate_instance36/27.sol
Elapsed time: 95.45
Upper bound: 1410126660.0
Planning weighted value: 38044703021.0
C[0]=1410126660.0
C[1]=1410086637.0
C[2]=1410033621.0
C[3]=1409756096.0
C[4]=0.0
y[0]=0
y[1]=3
y[2]=0
y[3]=2
y[4]=3
y[5]=1
y[6]=3
y[7]=0
y[8]=1
y[9]=3
y[10]=3
y[11]=3
y[12]=1
y[13]=2
y[14]=0
y[15]=2
y[16]=0
y[17]=0
y[18]=0
y[19]=1
y[20]=3
y[21]=0
y[22]=3
y[23]=1
y[24]=0
y[25]=2
y[26]=3
y[27]=3
y[28]=1
y[29]=3
y[30]=2
y[31]=3
y[32]=1
y[33]=2
y[34]=2
y[35]=1
y[36]=1
y[37]=3
y[38]=3
y[39]=0
y[40]=1
y[41]=3
y[42]=3
y[43]=0
y[44]=2
y[45]=2
