data/solutions/recovery/degenerate/moderate/flexible/degenerate_moderate_instance36/27.log

Log started (V12.6.3.0) Sat Apr 21 11:24:03 2018

New value for default parallel thread count: 1

Problem '/tmp/tmpP_Qfkd.pyomo.lp' read.
Read time = 0.00 sec. (0.11 ticks)

Problem name         : /tmp/tmpP_Qfkd.pyomo.lp
Objective sense      : Minimize
Variables            :     237  [Nneg: 1,  Binary: 230,  General Integer: 6]
Objective nonzeros   :       1
Linear constraints   :     104  [Less: 51,  Equal: 53]
  Nonzeros           :    7698
  RHS nonzeros       :      93

Variables            : Min LB: 0.000000         Max UB: 1.000000       
Objective nonzeros   : Min   : 1.000000         Max   : 1.000000       
Linear constraints   :
  Nonzeros           : Min   : 1.000000         Max   : 2.657465e+08   
  RHS nonzeros       : Min   : 1.000000         Max   : 5.000000       
Tried aggregator 1 time.
MIP Presolve eliminated 49 rows and 48 columns.
Reduced MIP has 55 rows, 189 columns, and 497 nonzeros.
Reduced MIP has 184 binaries, 5 generals, 0 SOSs, and 0 indicators.
Presolve time = 0.00 sec. (1.40 ticks)
Found incumbent of value 2.9838219e+09 after 0.00 sec. (1.65 ticks)
Probing time = 0.00 sec. (0.37 ticks)
Tried aggregator 1 time.
Reduced MIP has 55 rows, 189 columns, and 497 nonzeros.
Reduced MIP has 184 binaries, 5 generals, 0 SOSs, and 0 indicators.
Presolve time = 0.00 sec. (0.31 ticks)
Probing time = 0.00 sec. (0.37 ticks)
Clique table members: 46.
MIP emphasis: balance optimality and feasibility.
MIP search method: dynamic search.
Parallel mode: none, using 1 thread.
Root relaxation solution time = 0.00 sec. (0.95 ticks)

        Nodes                                         Cuts/
   Node  Left     Objective  IInf  Best Integer    Best Bound    ItCnt     Gap

*     0+    0                       2.98382e+09        0.0000           100.00%
      0     0   1.41000e+09    13   2.98382e+09   1.41000e+09      127   52.75%
      0     0   1.41000e+09    12   2.98382e+09      Fract: 2      134   52.75%
*     0+    0                       1.46293e+09   1.41000e+09             3.62%
      0     2   1.41000e+09     6   1.46293e+09   1.41000e+09      134    3.62%
Elapsed time = 0.01 sec. (10.21 ticks, tree = 0.01 MB, solutions = 2)
*    20+   18                       1.46037e+09   1.41000e+09             3.45%
*    60+   35                       1.41709e+09   1.41000e+09             0.50%
*   777   360      integral     0   1.41653e+09   1.41000e+09     2001    0.46%
*  1088   426      integral     0   1.41609e+09   1.41000e+09     3090    0.43%
*  1096   423      integral     0   1.41530e+09   1.41000e+09     3118    0.37%
*  1466+  646                       1.41499e+09   1.41000e+09             0.35%
*  1466+  638                       1.41310e+09   1.41000e+09             0.22%
*  1466+  638                       1.41261e+09   1.41000e+09             0.18%
*  1467+  426                       1.41161e+09   1.41000e+09             0.11%
*  1567+  229                       1.41111e+09   1.41000e+09             0.08%
*  1667+  156                       1.41096e+09   1.41000e+09             0.07%
   1767   175   1.41000e+09     8   1.41096e+09   1.41000e+09     4732    0.07%
   1768   175   1.41000e+09     8   1.41096e+09   1.41000e+09     4732    0.07%
   1769   175   1.41000e+09     8   1.41096e+09   1.41000e+09     4734    0.07%
   1770   176   1.41000e+09     8   1.41096e+09   1.41000e+09     4736    0.07%
   1771   177   1.41000e+09     8   1.41096e+09   1.41000e+09     4738    0.07%
   1772   177   1.41000e+09     8   1.41096e+09   1.41000e+09     4739    0.07%
   1773   178   1.41000e+09     8   1.41096e+09   1.41000e+09     4740    0.07%
   1774   179   1.41000e+09     8   1.41096e+09   1.41000e+09     4741    0.07%
   1775   179   1.41000e+09     8   1.41096e+09   1.41000e+09     4742    0.07%
   4315  1546   1.41000e+09     5   1.41096e+09   1.41000e+09    10470    0.07%
Elapsed time = 1.10 sec. (964.02 ticks, tree = 0.47 MB, solutions = 13)
* 11227+ 4405                       1.41047e+09   1.41000e+09             0.03%
  13548  4731        cutoff         1.41047e+09   1.41000e+09    35850    0.03%
  13549  4730        cutoff         1.41047e+09   1.41000e+09    35853    0.03%
  13550  4729        cutoff         1.41047e+09   1.41000e+09    35856    0.03%
  13551  4728        cutoff         1.41047e+09   1.41000e+09    35859    0.03%
  13552  4727        cutoff         1.41047e+09   1.41000e+09    35862    0.03%
  13553  4726        cutoff         1.41047e+09   1.41000e+09    35865    0.03%
  13554  4725        cutoff         1.41047e+09   1.41000e+09    35868    0.03%
  13555  4724        cutoff         1.41047e+09   1.41000e+09    35875    0.03%
  13556  4723        cutoff         1.41047e+09   1.41000e+09    35878    0.03%
  13557  4722        cutoff         1.41047e+09   1.41000e+09    35881    0.03%
Elapsed time = 2.20 sec. (1918.59 ticks, tree = 1.51 MB, solutions = 14)
  22967  6938   1.41000e+09     6   1.41047e+09   1.41000e+09    65968    0.03%
  22968  6939   1.41000e+09     6   1.41047e+09   1.41000e+09    65969    0.03%
  22969  6938        cutoff         1.41047e+09   1.41000e+09    65977    0.03%
  22970  6939   1.41000e+09     8   1.41047e+09   1.41000e+09    65981    0.03%
  22971  6940   1.41000e+09     8   1.41047e+09   1.41000e+09    65982    0.03%
  22972  6941   1.41000e+09     8   1.41047e+09   1.41000e+09    65983    0.03%
  22973  6940        cutoff         1.41047e+09   1.41000e+09    65986    0.03%
  22974  6941   1.41000e+09     6   1.41047e+09   1.41000e+09    65987    0.03%
  22975  6942   1.41000e+09     8   1.41047e+09   1.41000e+09    65989    0.03%
  22976  6943   1.41000e+09     8   1.41047e+09   1.41000e+09    65990    0.03%
Elapsed time = 3.29 sec. (2872.88 ticks, tree = 2.11 MB, solutions = 14)
  32004  7469        cutoff         1.41047e+09   1.41000e+09    93268    0.03%
  32005  7470   1.41000e+09     6   1.41047e+09   1.41000e+09    93269    0.03%
  32006  7471   1.41000e+09     6   1.41047e+09   1.41000e+09    93270    0.03%
  32007  7472   1.41000e+09     6   1.41047e+09   1.41000e+09    93271    0.03%
  32008  7473   1.41000e+09     6   1.41047e+09   1.41000e+09    93272    0.03%
  32009  7474   1.41000e+09     6   1.41047e+09   1.41000e+09    93273    0.03%
  32010  7475   1.41000e+09     6   1.41047e+09   1.41000e+09    93274    0.03%
  32011  7476   1.41000e+09     6   1.41047e+09   1.41000e+09    93275    0.03%
  32012  7477   1.41000e+09     6   1.41047e+09   1.41000e+09    93276    0.03%
  32013  7478   1.41000e+09     6   1.41047e+09   1.41000e+09    93278    0.03%
Elapsed time = 4.39 sec. (3827.71 ticks, tree = 2.28 MB, solutions = 14)
  40738  8166   1.41000e+09     6   1.41047e+09   1.41000e+09   120544    0.03%
  40739  8165        cutoff         1.41047e+09   1.41000e+09   120555    0.03%
  40740  8164    infeasible         1.41047e+09   1.41000e+09   120566    0.03%
  40741  8163        cutoff         1.41047e+09   1.41000e+09   120572    0.03%
  40742  8162        cutoff         1.41047e+09   1.41000e+09   120580    0.03%
  40743  8163   1.41000e+09     6   1.41047e+09   1.41000e+09   120585    0.03%
  40744  8164   1.41000e+09     6   1.41047e+09   1.41000e+09   120587    0.03%
  40745  8165   1.41000e+09     6   1.41047e+09   1.41000e+09   120588    0.03%
  40746  8166   1.41000e+09     6   1.41047e+09   1.41000e+09   120589    0.03%
  40747  8167   1.41000e+09     6   1.41047e+09   1.41000e+09   120590    0.03%
Elapsed time = 5.46 sec. (4782.49 ticks, tree = 2.47 MB, solutions = 14)
  50187 10358   1.41000e+09     7   1.41047e+09   1.41000e+09   151371    0.03%
  50188 10357        cutoff         1.41047e+09   1.41000e+09   151375    0.03%
  50189 10356        cutoff         1.41047e+09   1.41000e+09   151387    0.03%
  50190 10357   1.41000e+09     6   1.41047e+09   1.41000e+09   151388    0.03%
  50191 10358   1.41000e+09     8   1.41047e+09   1.41000e+09   151390    0.03%
  50192 10359   1.41000e+09     6   1.41047e+09   1.41000e+09   151391    0.03%
  50193 10360   1.41000e+09     6   1.41047e+09   1.41000e+09   151392    0.03%
  50194 10361   1.41000e+09     6   1.41047e+09   1.41000e+09   151393    0.03%
  50195 10362   1.41000e+09     6   1.41047e+09   1.41000e+09   151394    0.03%
  50196 10363   1.41000e+09     6   1.41047e+09   1.41000e+09   151395    0.03%
Elapsed time = 6.53 sec. (5736.90 ticks, tree = 3.29 MB, solutions = 14)
  58869 11440    infeasible         1.41047e+09   1.41000e+09   178782    0.03%
  58870 11439    infeasible         1.41047e+09   1.41000e+09   178782    0.03%
  58871 11438        cutoff         1.41047e+09   1.41000e+09   178787    0.03%
  58872 11437        cutoff         1.41047e+09   1.41000e+09   178802    0.03%
  58873 11436    infeasible         1.41047e+09   1.41000e+09   178802    0.03%
  58874 11435    infeasible         1.41047e+09   1.41000e+09   178815    0.03%
  58875 11434    infeasible         1.41047e+09   1.41000e+09   178815    0.03%
  58876 11433        cutoff         1.41047e+09   1.41000e+09   178826    0.03%
  58877 11432        cutoff         1.41047e+09   1.41000e+09   178842    0.03%
  58878 11431    infeasible         1.41047e+09   1.41000e+09   178842    0.03%
Elapsed time = 7.62 sec. (6691.80 ticks, tree = 3.60 MB, solutions = 14)
  67400 11920        cutoff         1.41047e+09   1.41000e+09   207481    0.03%
  67401 11919    infeasible         1.41047e+09   1.41000e+09   207481    0.03%
  67402 11918        cutoff         1.41047e+09   1.41000e+09   207490    0.03%
  67403 11917        cutoff         1.41047e+09   1.41000e+09   207496    0.03%
  67404 11916        cutoff         1.41047e+09   1.41000e+09   207511    0.03%
  67405 11915        cutoff         1.41047e+09   1.41000e+09   207526    0.03%
  67406 11914        cutoff         1.41047e+09   1.41000e+09   207536    0.03%
  67407 11913    infeasible         1.41047e+09   1.41000e+09   207536    0.03%
  67408 11914   1.41000e+09     6   1.41047e+09   1.41000e+09   207537    0.03%
  67409 11915   1.41000e+09     8   1.41047e+09   1.41000e+09   207540    0.03%
Elapsed time = 8.71 sec. (7646.98 ticks, tree = 3.74 MB, solutions = 14)
  76054 12793        cutoff         1.41047e+09   1.41000e+09   236148    0.03%
  76055 12792        cutoff         1.41047e+09   1.41000e+09   236156    0.03%
  76056 12791    infeasible         1.41047e+09   1.41000e+09   236158    0.03%
  76057 12790    infeasible         1.41047e+09   1.41000e+09   236158    0.03%
  76058 12789    infeasible         1.41047e+09   1.41000e+09   236168    0.03%
  76059 12788    infeasible         1.41047e+09   1.41000e+09   236168    0.03%
  76060 12787        cutoff         1.41047e+09   1.41000e+09   236173    0.03%
  76061 12786        cutoff         1.41047e+09   1.41000e+09   236176    0.03%
  76062 12785    infeasible         1.41047e+09   1.41000e+09   236176    0.03%
  76063 12784        cutoff         1.41047e+09   1.41000e+09   236182    0.03%
Elapsed time = 9.78 sec. (8602.59 ticks, tree = 3.98 MB, solutions = 14)
  84176 13508   1.41000e+09     6   1.41047e+09   1.41000e+09   264833    0.03%
  84177 13509   1.41000e+09     6   1.41047e+09   1.41000e+09   264834    0.03%
  84178 13510   1.41000e+09     6   1.41047e+09   1.41000e+09   264835    0.03%
  84179 13510   1.41000e+09     6   1.41047e+09   1.41000e+09   264836    0.03%
  84180 13509    infeasible         1.41047e+09   1.41000e+09   264836    0.03%
  84181 13510   1.41000e+09     5   1.41047e+09   1.41000e+09   264837    0.03%
  84182 13511   1.41000e+09     5   1.41047e+09   1.41000e+09   264838    0.03%
  84183 13510        cutoff         1.41047e+09   1.41000e+09   264848    0.03%
  84184 13511   1.41000e+09     6   1.41047e+09   1.41000e+09   264850    0.03%
 109462 15889   1.41033e+09     4   1.41047e+09   1.41000e+09   347566    0.03%
Elapsed time = 14.03 sec. (12417.30 ticks, tree = 4.83 MB, solutions = 14)
*140310 20133      integral     0   1.41022e+09   1.41000e+09   442387    0.02%
 144138 20224        cutoff         1.41022e+09   1.41000e+09   455278    0.02%
 144139 20225   1.41000e+09     5   1.41022e+09   1.41000e+09   455282    0.02%
 144140 20226   1.41000e+09     6   1.41022e+09   1.41000e+09   455284    0.02%
 144141 20225        cutoff         1.41022e+09   1.41000e+09   455302    0.02%
 144142 20226   1.41000e+09     5   1.41022e+09   1.41000e+09   455304    0.02%
 144143 20225    infeasible         1.41022e+09   1.41000e+09   455304    0.02%
 144144 20226   1.41000e+09     6   1.41022e+09   1.41000e+09   455305    0.02%
 144145 20227   1.41000e+09     6   1.41022e+09   1.41000e+09   455306    0.02%
 144146 20228   1.41000e+09     6   1.41022e+09   1.41000e+09   455310    0.02%
 144147 20229   1.41000e+09     6   1.41022e+09   1.41000e+09   455313    0.02%
Elapsed time = 18.35 sec. (16233.66 ticks, tree = 6.44 MB, solutions = 15)
 176920 22096        cutoff         1.41022e+09   1.41000e+09   563374    0.02%
 176921 22095        cutoff         1.41022e+09   1.41000e+09   563390    0.02%
 176922 22095   1.41000e+09     7   1.41022e+09   1.41000e+09   563392    0.02%
 176923 22096   1.41000e+09     5   1.41022e+09   1.41000e+09   563393    0.02%
 176924 22096   1.41000e+09     8   1.41022e+09   1.41000e+09   563397    0.02%
 176925 22097   1.41000e+09     6   1.41022e+09   1.41000e+09   563398    0.02%
 176926 22098   1.41000e+09     8   1.41022e+09   1.41000e+09   563400    0.02%
 176927 22099   1.41000e+09     5   1.41022e+09   1.41000e+09   563402    0.02%
 176928 22099   1.41000e+09     7   1.41022e+09   1.41000e+09   563405    0.02%
 176929 22100   1.41000e+09     5   1.41022e+09   1.41000e+09   563406    0.02%
Elapsed time = 22.58 sec. (20049.27 ticks, tree = 6.95 MB, solutions = 15)
 209289 24228   1.41000e+09     6   1.41022e+09   1.41000e+09   671823    0.02%
 209290 24229   1.41000e+09     6   1.41022e+09   1.41000e+09   671824    0.02%
 209291 24230   1.41000e+09     6   1.41022e+09   1.41000e+09   671825    0.02%
 209292 24231   1.41000e+09     6   1.41022e+09   1.41000e+09   671826    0.02%
 209293 24232   1.41000e+09     6   1.41022e+09   1.41000e+09   671827    0.02%
 209294 24233   1.41000e+09     6   1.41022e+09   1.41000e+09   671828    0.02%
 209295 24234   1.41000e+09     6   1.41022e+09   1.41000e+09   671829    0.02%
 209296 24235   1.41000e+09     8   1.41022e+09   1.41000e+09   671832    0.02%
 209297 24236   1.41000e+09     6   1.41022e+09   1.41000e+09   671834    0.02%
 209298 24237   1.41000e+09     6   1.41022e+09   1.41000e+09   671835    0.02%
Elapsed time = 26.88 sec. (23864.36 ticks, tree = 7.54 MB, solutions = 15)
 245072 25222        cutoff         1.41022e+09   1.41000e+09   786925    0.02%
 245073 25221        cutoff         1.41022e+09   1.41000e+09   786933    0.02%
 245074 25220        cutoff         1.41022e+09   1.41000e+09   786942    0.02%
 245075 25219        cutoff         1.41022e+09   1.41000e+09   786951    0.02%
 245076 25218        cutoff         1.41022e+09   1.41000e+09   786960    0.02%
 245077 25217        cutoff         1.41022e+09   1.41000e+09   786964    0.02%
 245078 25216        cutoff         1.41022e+09   1.41000e+09   786968    0.02%
 245079 25215        cutoff         1.41022e+09   1.41000e+09   786972    0.02%
 245080 25214    infeasible         1.41022e+09   1.41000e+09   786972    0.02%
 245081 25213    infeasible         1.41022e+09   1.41000e+09   786972    0.02%
Elapsed time = 31.15 sec. (27680.47 ticks, tree = 7.79 MB, solutions = 15)
 278400 25054   1.41000e+09     6   1.41022e+09   1.41000e+09   918692    0.02%
 278401 25055   1.41000e+09     6   1.41022e+09   1.41000e+09   918694    0.02%
 278402 25056   1.41000e+09     6   1.41022e+09   1.41000e+09   918695    0.02%
 278403 25057   1.41000e+09     6   1.41022e+09   1.41000e+09   918697    0.02%
 278404 25058   1.41000e+09     6   1.41022e+09   1.41000e+09   918699    0.02%
 278405 25059   1.41000e+09     6   1.41022e+09   1.41000e+09   918701    0.02%
 278406 25058        cutoff         1.41022e+09   1.41000e+09   918704    0.02%
 278407 25057        cutoff         1.41022e+09   1.41000e+09   918708    0.02%
 278408 25056        cutoff         1.41022e+09   1.41000e+09   918710    0.02%
 278409 25055        cutoff         1.41022e+09   1.41000e+09   918720    0.02%
Elapsed time = 35.32 sec. (31496.45 ticks, tree = 7.72 MB, solutions = 15)
 316006 24018   1.41000e+09     6   1.41022e+09   1.41000e+09  1054867    0.02%
 316007 24017        cutoff         1.41022e+09   1.41000e+09  1054879    0.02%
 316008 24018   1.41000e+09     8   1.41022e+09   1.41000e+09  1054881    0.02%
 316009 24017        cutoff         1.41022e+09   1.41000e+09  1054883    0.02%
 316010 24016        cutoff         1.41022e+09   1.41000e+09  1054891    0.02%
 316011 24015        cutoff         1.41022e+09   1.41000e+09  1054898    0.02%
 316012 24014    infeasible         1.41022e+09   1.41000e+09  1054907    0.02%
 316013 24013    infeasible         1.41022e+09   1.41000e+09  1054924    0.02%
 316014 24014   1.41000e+09     8   1.41022e+09   1.41000e+09  1054926    0.02%
 316015 24015   1.41000e+09     8   1.41022e+09   1.41000e+09  1054927    0.02%
Elapsed time = 39.44 sec. (35312.51 ticks, tree = 7.44 MB, solutions = 15)
 352794 23513    infeasible         1.41022e+09   1.41000e+09  1189706    0.02%
 352795 23514   1.41000e+09     6   1.41022e+09   1.41000e+09  1189707    0.02%
 352796 23513    infeasible         1.41022e+09   1.41000e+09  1189707    0.02%
 352797 23512    infeasible         1.41022e+09   1.41000e+09  1189707    0.02%
 352798 23513   1.41000e+09     5   1.41022e+09   1.41000e+09  1189709    0.02%
 352799 23514   1.41000e+09     6   1.41022e+09   1.41000e+09  1189710    0.02%
 352800 23515   1.41000e+09     6   1.41022e+09   1.41000e+09  1189711    0.02%
 352801 23516   1.41000e+09     6   1.41022e+09   1.41000e+09  1189712    0.02%
 352802 23517   1.41000e+09     6   1.41022e+09   1.41000e+09  1189713    0.02%
 352803 23518   1.41000e+09     6   1.41022e+09   1.41000e+09  1189715    0.02%
Elapsed time = 43.60 sec. (39127.66 ticks, tree = 7.31 MB, solutions = 15)
 384528 25120        cutoff         1.41022e+09   1.41000e+09  1288040    0.02%
 384529 25121   1.41000e+09     5   1.41022e+09   1.41000e+09  1288041    0.02%
 384530 25122   1.41000e+09     6   1.41022e+09   1.41000e+09  1288043    0.02%
 384531 25123   1.41000e+09     5   1.41022e+09   1.41000e+09  1288044    0.02%
 384532 25124   1.41000e+09     6   1.41022e+09   1.41000e+09  1288046    0.02%
 384533 25125   1.41000e+09     6   1.41022e+09   1.41000e+09  1288047    0.02%
 384534 25126   1.41000e+09     6   1.41022e+09   1.41000e+09  1288048    0.02%
 384535 25127   1.41000e+09     6   1.41022e+09   1.41000e+09  1288049    0.02%
 384536 25126        cutoff         1.41022e+09   1.41000e+09  1288056    0.02%
 384537 25125        cutoff         1.41022e+09   1.41000e+09  1288058    0.02%
Elapsed time = 47.89 sec. (42943.52 ticks, tree = 7.74 MB, solutions = 15)
 417254 25310        cutoff         1.41022e+09   1.41000e+09  1392428    0.02%
 417255 25311   1.41000e+09     6   1.41022e+09   1.41000e+09  1392433    0.02%
 417256 25310        cutoff         1.41022e+09   1.41000e+09  1392437    0.02%
 417257 25309        cutoff         1.41022e+09   1.41000e+09  1392440    0.02%
 417258 25308    infeasible         1.41022e+09   1.41000e+09  1392440    0.02%
 417259 25307    infeasible         1.41022e+09   1.41000e+09  1392440    0.02%
 417260 25306    infeasible         1.41022e+09   1.41000e+09  1392440    0.02%
 417261 25305    infeasible         1.41022e+09   1.41000e+09  1392440    0.02%
 417262 25305   1.41000e+09     8   1.41022e+09   1.41000e+09  1392442    0.02%
 417263 25305   1.41000e+09     8   1.41022e+09   1.41000e+09  1392446    0.02%
Elapsed time = 52.16 sec. (46758.80 ticks, tree = 7.79 MB, solutions = 15)
 450995 26004   1.41000e+09     6   1.41022e+09   1.41000e+09  1501922    0.02%
 450996 26005   1.41000e+09     8   1.41022e+09   1.41000e+09  1501924    0.02%
 450997 26006   1.41000e+09     6   1.41022e+09   1.41000e+09  1501925    0.02%
 450998 26007   1.41000e+09     6   1.41022e+09   1.41000e+09  1501926    0.02%
 450999 26007   1.41000e+09     7   1.41022e+09   1.41000e+09  1501928    0.02%
 451000 26008   1.41000e+09     6   1.41022e+09   1.41000e+09  1501929    0.02%
 451001 26008   1.41000e+09     7   1.41022e+09   1.41000e+09  1501931    0.02%
 451002 26009   1.41000e+09     6   1.41022e+09   1.41000e+09  1501932    0.02%
 451003 26010   1.41000e+09     8   1.41022e+09   1.41000e+09  1501934    0.02%
 451004 26009    infeasible         1.41022e+09   1.41000e+09  1501934    0.02%
Elapsed time = 56.45 sec. (50573.84 ticks, tree = 8.01 MB, solutions = 15)
 483959 24835        cutoff         1.41022e+09   1.41000e+09  1618930    0.02%
 483960 24834    infeasible         1.41022e+09   1.41000e+09  1618930    0.02%
 483961 24833    infeasible         1.41022e+09   1.41000e+09  1618930    0.02%
 483962 24832        cutoff         1.41022e+09   1.41000e+09  1618942    0.02%
 483963 24831        cutoff         1.41022e+09   1.41000e+09  1618954    0.02%
 483964 24830        cutoff         1.41022e+09   1.41000e+09  1618969    0.02%
 483965 24831   1.41000e+09     7   1.41022e+09   1.41000e+09  1618971    0.02%
 483966 24832   1.41000e+09     8   1.41022e+09   1.41000e+09  1618977    0.02%
 483967 24833   1.41000e+09     8   1.41022e+09   1.41000e+09  1618979    0.02%
 483968 24834   1.41000e+09     5   1.41022e+09   1.41000e+09  1618981    0.02%
Elapsed time = 60.72 sec. (54390.01 ticks, tree = 7.68 MB, solutions = 15)
 516554 24791   1.41000e+09     5   1.41022e+09   1.41000e+09  1728888    0.02%
 516555 24792   1.41000e+09     8   1.41022e+09   1.41000e+09  1728890    0.02%
 516556 24793   1.41000e+09     6   1.41022e+09   1.41000e+09  1728891    0.02%
 516557 24794   1.41000e+09     6   1.41022e+09   1.41000e+09  1728892    0.02%
 516558 24795   1.41000e+09     8   1.41022e+09   1.41000e+09  1728894    0.02%
 516559 24796   1.41000e+09     6   1.41022e+09   1.41000e+09  1728896    0.02%
 516560 24797   1.41000e+09     8   1.41022e+09   1.41000e+09  1728898    0.02%
 516561 24797   1.41000e+09     7   1.41022e+09   1.41000e+09  1728900    0.02%
 516562 24796        cutoff         1.41022e+09   1.41000e+09  1728906    0.02%
 516563 24795        cutoff         1.41022e+09   1.41000e+09  1728914    0.02%
Elapsed time = 64.94 sec. (58206.27 ticks, tree = 7.67 MB, solutions = 15)
 548107 26243   1.41000e+09     6   1.41022e+09   1.41000e+09  1834317    0.02%
 548108 26244   1.41000e+09     6   1.41022e+09   1.41000e+09  1834318    0.02%
 548109 26245   1.41000e+09     6   1.41022e+09   1.41000e+09  1834319    0.02%
 548110 26246   1.41000e+09     6   1.41022e+09   1.41000e+09  1834320    0.02%
 548111 26247   1.41000e+09     6   1.41022e+09   1.41000e+09  1834322    0.02%
 548112 26248   1.41000e+09     6   1.41022e+09   1.41000e+09  1834326    0.02%
 548113 26249   1.41000e+09     6   1.41022e+09   1.41000e+09  1834330    0.02%
 548114 26250   1.41000e+09     6   1.41022e+09   1.41000e+09  1834331    0.02%
 548115 26251   1.41000e+09     6   1.41022e+09   1.41000e+09  1834333    0.02%
 548116 26252   1.41000e+09     6   1.41022e+09   1.41000e+09  1834335    0.02%
Elapsed time = 69.20 sec. (62022.10 ticks, tree = 8.08 MB, solutions = 15)
 579031 28815        cutoff         1.41022e+09   1.41000e+09  1934160    0.02%
 579032 28816   1.41000e+09     8   1.41022e+09   1.41000e+09  1934163    0.02%
 579033 28817   1.41000e+09     6   1.41022e+09   1.41000e+09  1934165    0.02%
 579034 28818   1.41000e+09     6   1.41022e+09   1.41000e+09  1934166    0.02%
 579035 28819   1.41000e+09     6   1.41022e+09   1.41000e+09  1934167    0.02%
 579036 28820   1.41000e+09     5   1.41022e+09   1.41000e+09  1934169    0.02%
 579037 28821   1.41000e+09     5   1.41022e+09   1.41000e+09  1934170    0.02%
 579038 28822   1.41000e+09     6   1.41022e+09   1.41000e+09  1934173    0.02%
 579039 28823   1.41000e+09     6   1.41022e+09   1.41000e+09  1934174    0.02%
 579040 28824   1.41000e+09     6   1.41022e+09   1.41000e+09  1934175    0.02%
Elapsed time = 73.53 sec. (65837.99 ticks, tree = 8.79 MB, solutions = 15)
 610456 26667        cutoff         1.41022e+09   1.41000e+09  2052542    0.02%
 610457 26666        cutoff         1.41022e+09   1.41000e+09  2052550    0.02%
 610458 26665        cutoff         1.41022e+09   1.41000e+09  2052557    0.02%
 610459 26664        cutoff         1.41022e+09   1.41000e+09  2052565    0.02%
 610460 26665   1.41000e+09     5   1.41022e+09   1.41000e+09  2052566    0.02%
 610461 26666   1.41000e+09     5   1.41022e+09   1.41000e+09  2052567    0.02%
 610462 26667   1.41000e+09     5   1.41022e+09   1.41000e+09  2052568    0.02%
 610463 26668   1.41000e+09     8   1.41022e+09   1.41000e+09  2052571    0.02%
 610464 26669   1.41000e+09     8   1.41022e+09   1.41000e+09  2052574    0.02%
 610465 26670   1.41000e+09     6   1.41022e+09   1.41000e+09  2052575    0.02%
Elapsed time = 77.76 sec. (69654.62 ticks, tree = 8.21 MB, solutions = 15)
 641869 25716   1.41000e+09     6   1.41022e+09   1.41000e+09  2169056    0.02%
 641870 25717   1.41000e+09     6   1.41022e+09   1.41000e+09  2169057    0.02%
 641871 25718   1.41000e+09     8   1.41022e+09   1.41000e+09  2169059    0.02%
 641872 25717        cutoff         1.41022e+09   1.41000e+09  2169065    0.02%
 641873 25718   1.41000e+09     8   1.41022e+09   1.41000e+09  2169067    0.02%
 641874 25719   1.41000e+09     6   1.41022e+09   1.41000e+09  2169069    0.02%
 641875 25719   1.41000e+09     8   1.41022e+09   1.41000e+09  2169071    0.02%
 641876 25720   1.41000e+09     6   1.41022e+09   1.41000e+09  2169073    0.02%
 641877 25719        cutoff         1.41022e+09   1.41000e+09  2169078    0.02%
 641878 25718        cutoff         1.41022e+09   1.41000e+09  2169083    0.02%
Elapsed time = 81.82 sec. (73470.58 ticks, tree = 7.95 MB, solutions = 15)
 672315 25982        cutoff         1.41022e+09   1.41000e+09  2275631    0.02%
 672316 25981        cutoff         1.41022e+09   1.41000e+09  2275634    0.02%
 672317 25980        cutoff         1.41022e+09   1.41000e+09  2275642    0.02%
 672318 25979        cutoff         1.41022e+09   1.41000e+09  2275647    0.02%
 672319 25978        cutoff         1.41022e+09   1.41000e+09  2275648    0.02%
 672320 25977    infeasible         1.41022e+09   1.41000e+09  2275648    0.02%
 672321 25976    infeasible         1.41022e+09   1.41000e+09  2275661    0.02%
 672322 25975        cutoff         1.41022e+09   1.41000e+09  2275664    0.02%
 672323 25974        cutoff         1.41022e+09   1.41000e+09  2275667    0.02%
 672324 25973        cutoff         1.41022e+09   1.41000e+09  2275670    0.02%
Elapsed time = 86.06 sec. (77287.69 ticks, tree = 8.01 MB, solutions = 15)
 702476 26102   1.41000e+09     6   1.41022e+09   1.41000e+09  2386832    0.02%
 702477 26103   1.41000e+09     6   1.41022e+09   1.41000e+09  2386836    0.02%
 702478 26102    infeasible         1.41022e+09   1.41000e+09  2386836    0.02%
 702479 26102   1.41000e+09     7   1.41022e+09   1.41000e+09  2386840    0.02%
 702480 26103   1.41000e+09     6   1.41022e+09   1.41000e+09  2386846    0.02%
 702481 26104   1.41000e+09     6   1.41022e+09   1.41000e+09  2386847    0.02%
 702482 26105   1.41000e+09     8   1.41022e+09   1.41000e+09  2386851    0.02%
 702483 26106   1.41000e+09     8   1.41022e+09   1.41000e+09  2386858    0.02%
 702484 26105        cutoff         1.41022e+09   1.41000e+09  2386863    0.02%
 702485 26104    infeasible         1.41022e+09   1.41000e+09  2386863    0.02%
Elapsed time = 90.27 sec. (81103.30 ticks, tree = 8.04 MB, solutions = 15)
 722680 23702        cutoff         1.41022e+09   1.41000e+09  2471757    0.02%
 722681 23701        cutoff         1.41022e+09   1.41000e+09  2471767    0.02%
 722682 23700        cutoff         1.41022e+09   1.41000e+09  2471771    0.02%
 722683 23699        cutoff         1.41022e+09   1.41000e+09  2471783    0.02%
 722684 23698        cutoff         1.41022e+09   1.41000e+09  2471797    0.02%
 722685 23697        cutoff         1.41022e+09   1.41000e+09  2471807    0.02%
 722686 23696    infeasible         1.41022e+09   1.41000e+09  2471807    0.02%
 722687 23695        cutoff         1.41022e+09   1.41000e+09  2471810    0.02%
 722688 23696   1.41000e+09     7   1.41022e+09   1.41000e+09  2471811    0.02%
 722689 23697   1.41000e+09     8   1.41022e+09   1.41000e+09  2471812    0.02%
Elapsed time = 94.27 sec. (84919.30 ticks, tree = 7.41 MB, solutions = 15)
*730279 22529      integral     0   1.41013e+09   1.41000e+09  2504525    0.01%

Mixed integer rounding cuts applied:  1
Gomory fractional cuts applied:  1

Root node processing (before b&c):
  Real time             =    0.01 sec. (10.23 ticks)
Sequential b&c:
  Real time             =   95.40 sec. (85911.45 ticks)
                          ------------
Total (root+branch&cut) =   95.41 sec. (85921.68 ticks)

Solution pool: 16 solutions saved.

MIP - Integer optimal, tolerance (0.0001/1e-06):  Objective =  1.4101266600e+09
Current MIP best bound =  1.4100007540e+09 (gap = 125906, 0.01%)
Solution time =   95.41 sec.  Iterations = 2504525  Nodes = 730280 (22529)
Deterministic time = 85921.68 ticks  (900.56 ticks/sec)


Incumbent solution written to file '/tmp/tmpw8kCF5.cplex.sol'.
